solution status: optimal solution found
objective value:                     4.99999995088996
shell_j_bank.thing.devices[0].thingy.vpump1                    1 	(obj:0)
shell_i_bank.waste_flush_hole                       1 	(obj:0)
shell_j_bank.thing.devices[0].thingy.vpump2                    1 	(obj:0)
shell_j_bank.thing.devices[0].thingy.vpump3                    1 	(obj:0)
shell_j_bank.lysis_out_ctrl_hole                    1 	(obj:0)
shell_j_bank.collect_flush_hole                     1 	(obj:0)
shell_j_bank.push_flush_hole                        1 	(obj:0)
shell_j_bank.cells_in_ctrl_hole                     1 	(obj:0)
shell_j_bank.lysis_in_ctrl_hole                     1 	(obj:0)
shell_j_bank.thing.devices[0].thingy.vsep                    1 	(obj:0)
shell_j_bank.push_ctrl_hole                         1 	(obj:0)
shell_j_bank.cells_out_ctrl_hole                    1 	(obj:0)
shell_i_bank.lysis_in_flush_hole                    1 	(obj:0)
shell_j_bank.lysis_out_flush_hole     1.00000000000431 	(obj:0)
shell_j_bank.beads_ctrl_hole                        1 	(obj:0)
shell_i_bank.thing.devices[0].thingy.vsieve     1.00000000000475 	(obj:0)
shell_i_bank.beads_flush_hole                       1 	(obj:0)
shell_j_bank.cells_out_flush_hole                    1 	(obj:0)
shell_j_bank.cells_in_flush_hole                    1 	(obj:0)
shell_i_bank.waste_ctrl_hole                        1 	(obj:0)
shell_i_bank.collect_ctrl_hole                      1 	(obj:0)
bank.lysis_in_ctrl_hole_z                          20 	(obj:0)
bank.thing.devices[0].thingy.vpump3_y                    5 	(obj:0)
bank.thing.devices[0].thingy.vpump3_z                   22 	(obj:0)
bank.thing.devices[0].thingy.vsep_x                    5 	(obj:0)
bank.thing.devices[0].thingy.vsep_y                    5 	(obj:0)
bank.thing.devices[0].thingy.vsep_z                   23 	(obj:0)
bank.waste_flush_hole_y                             4 	(obj:0)
bank.waste_flush_hole_z                            23 	(obj:0)
bank.push_ctrl_hole_x                               4 	(obj:0)
bank.push_ctrl_hole_y                               5 	(obj:0)
bank.push_ctrl_hole_z                              25 	(obj:0)
bank.lysis_out_ctrl_hole_x                          4 	(obj:0)
bank.lysis_out_ctrl_hole_y                          5 	(obj:0)
bank.cells_out_ctrl_hole_x                          2 	(obj:0)
bank.cells_out_ctrl_hole_y                          5 	(obj:0)
bank.cells_out_ctrl_hole_z                         23 	(obj:0)
bank.lysis_out_ctrl_hole_z                         21 	(obj:0)
bank.thing.devices[0].thingy.vpump1_z                   23 	(obj:0)
bank.lysis_in_flush_hole_x                          5 	(obj:0)
bank.lysis_in_flush_hole_y                          5 	(obj:0)
bank.lysis_in_flush_hole_z                         21 	(obj:0)
bank.thing.devices[0].thingy.vpump1_x                    4 	(obj:0)
bank.collect_flush_hole_x                           5 	(obj:0)
bank.lysis_out_flush_hole_x          4.00000000335831 	(obj:0)
bank.lysis_out_flush_hole_y           5.0000000000511 	(obj:0)
bank.lysis_out_flush_hole_z                        22 	(obj:0)
bank.collect_flush_hole_y                           5 	(obj:0)
bank.collect_flush_hole_z                          24 	(obj:0)
bank.beads_ctrl_hole_x                              5 	(obj:0)
bank.beads_ctrl_hole_y                              5 	(obj:0)
bank.beads_ctrl_hole_z                             25 	(obj:0)
bank.thing.devices[0].thingy.vpump2_x                    4 	(obj:0)
bank.thing.devices[0].thingy.vpump2_y                    5 	(obj:0)
bank.thing.devices[0].thingy.vsieve_x     5.00000000026052 	(obj:0)
bank.thing.devices[0].thingy.vsieve_y     4.00000000850299 	(obj:0)
bank.thing.devices[0].thingy.vsieve_z                   25 	(obj:0)
bank.push_flush_hole_x                              3 	(obj:0)
bank.push_flush_hole_y                              5 	(obj:0)
bank.beads_flush_hole_x                             5 	(obj:0)
bank.beads_flush_hole_y                             4 	(obj:0)
bank.beads_flush_hole_z              24.0000000097014 	(obj:0)
bank.push_flush_hole_z                             25 	(obj:0)
bank.thing.devices[0].thingy.vpump2_z                   24 	(obj:0)
bank.cells_out_flush_hole_y                         5 	(obj:0)
bank.cells_out_flush_hole_z                        24 	(obj:0)
bank.thing.devices[0].thingy.vpump1_y                    5 	(obj:0)
bank.cells_in_ctrl_hole_x                           2 	(obj:0)
bank.cells_in_flush_hole_x                          3 	(obj:0)
bank.cells_in_flush_hole_y                          5 	(obj:0)
bank.cells_in_flush_hole_z                         24 	(obj:0)
bank.cells_in_ctrl_hole_y                           5 	(obj:0)
bank.cells_in_ctrl_hole_z                          24 	(obj:0)
bank.waste_ctrl_hole_x                              5 	(obj:0)
bank.waste_ctrl_hole_y                              4 	(obj:0)
bank.waste_ctrl_hole_z                             22 	(obj:0)
bank.waste_flush_hole_x                             5 	(obj:0)
bank.thing.devices[0].thingy.vpump3_x                    5 	(obj:0)
bank.collect_ctrl_hole_x                            5 	(obj:0)
bank.collect_ctrl_hole_y                            3 	(obj:0)
bank.collect_ctrl_hole_z                           23 	(obj:0)
bank.lysis_in_ctrl_hole_x                           5 	(obj:0)
bank.lysis_in_ctrl_hole_y                           5 	(obj:0)
x106                                                1 	(obj:1)
x111                                                1 	(obj:1)
x118                                                1 	(obj:1)
x130                             -8.57876597124941e-09 	(obj:1)
x158                             -7.17566198585905e-09 	(obj:1)
x162                             -8.57876597124941e-09 	(obj:1)
x164                                0.999999982450372 	(obj:1)
x166                             -7.22721351247568e-09 	(obj:1)
x170                                                1 	(obj:1)
